c cnf/enc1_cachet_cancer.cnf
c
p cnf 30 74
w 1 1 1
w 2 1 1
w 3 0.9 1
w 4 0.1 1
w 5 1 1
w 6 1 1
w 7 0.3 1
w 8 0.7 1
w 9 1 1
w 10 1 1
w 11 0.03 1
w 12 0.001 1
w 13 0.05 1
w 14 0.02 1
w 15 0.97 1
w 16 0.999 1
w 17 0.95 1
w 18 0.98 1
w 19 1 1
w 20 1 1
w 21 0.9 1
w 22 0.2 1
w 23 0.1 1
w 24 0.8 1
w 25 1 1
w 26 1 1
w 27 0.65 1
w 28 0.3 1
w 29 0.35 1
w 30 0.7 1
10 9 0
26 25 0
2 1 0
6 5 0
20 19 0
10 -18 0
10 -17 0
10 -16 0
10 -15 0
10 -30 0
10 -28 0
10 -24 0
10 -22 0
9 -14 0
9 -13 0
9 -12 0
9 -11 0
9 -29 0
9 -27 0
9 -23 0
9 -21 0
26 -30 0
26 -29 0
25 -28 0
25 -27 0
2 -18 0
2 -17 0
2 -14 0
2 -13 0
2 -4 0
4 -2 0
1 -16 0
1 -15 0
1 -12 0
1 -11 0
1 -3 0
3 -1 0
6 -18 0
6 -16 0
6 -14 0
6 -12 0
6 -8 0
8 -6 0
5 -17 0
5 -15 0
5 -13 0
5 -11 0
5 -7 0
7 -5 0
20 -24 0
20 -23 0
19 -22 0
19 -21 0
-10 -9 0
-26 -25 0
-2 -1 0
-6 -5 0
-20 -19 0
30 -10 -26 0
29 -9 -26 0
28 -10 -25 0
27 -9 -25 0
24 -10 -20 0
23 -9 -20 0
22 -10 -19 0
21 -9 -19 0
18 -10 -2 -6 0
17 -10 -2 -5 0
16 -10 -1 -6 0
15 -10 -1 -5 0
14 -9 -2 -6 0
13 -9 -2 -5 0
12 -9 -1 -6 0
11 -9 -1 -5 0
